32      4       
10      10      10      10      
0       0       0       0       0       5       2       3       5       7       14      
7       1       1       0       1       9       4       10      12      13      18      19      29      30      31      
5       6       0       1       7       4       6       10      12      28      
3       3       2       0       5       5       8       11      17      27      28      
6       3       4       0       2       6       10      15      23      27      28      30      
2       0       2       5       3       5       9       16      24      27      29      
4       2       6       0       5       5       9       12      16      24      25      
1       4       0       2       4       4       9       16      24      25      
4       0       5       2       6       4       15      20      22      23      
10      0       5       4       2       4       20      22      24      25      
10      0       3       3       6       3       15      20      26      
8       8       1       7       0       3       20      21      22      
1       5       0       4       1       3       22      23      25      
5       2       6       2       0       2       20      23      
10      0       5       4       3       1       21      
9       3       6       5       0       1       26      
9       3       3       4       0       1       24      
7       0       4       4       8       1       21      
4       0       5       4       5       1       20      
7       6       6       1       0       1       32      
4       0       5       5       4       1       32      
2       5       6       5       0       1       32      
5       3       0       5       5       1       32      
3       3       3       0       2       1       32      
3       4       0       7       7       1       32      
7       8       7       4       0       1       32      
6       3       0       6       4       1       32      
1       3       0       4       1       1       32      
9       0       3       3       2       1       32      
2       0       1       4       5       1       32      
3       5       3       5       0       1       32      
0       0       0       0       0       0       
